<number of tasks>
20

<cycle time>
1000

<order strength>
0.263


<task times>
1 157
2 43
3 62
4 166
5 258
6 91
7 113
8 116
9 76
10 216
11 80
12 218
13 77
14 85
15 133
16 467
17 57
18 302
19 74
20 107

<precedence relations>
1,7
2,7
3,7
4,7
6,8
6,9
7,10
7,11
7,12
7,13
8,14
9,15
12,16
14,17
15,18
18,19
18,20

<end>
